unsat
(define-fun f ((x (_ BitVec 64))) (_ BitVec 64) (let ((_let_1 (smol x))) (im (bvand #b0000000000000000000000000000000000000000000000000000000000000001 (shesh _let_1)) (bvadd #b0000000000000000000000000000000000000000000000000000000000000001 x) (bvnot _let_1))))
2.42user 0.02system 0:02.45elapsed 100%CPU (0avgtext+0avgdata 45376maxresident)k
8inputs+8outputs (0major+10177minor)pagefaults 0swaps
